
Gurobi 11.0.0 (linux64) logging started Mon Jul 22 16:36:57 2024

Set parameter LogFile to value "/lustre1/scratch/348/vsc34888/JointResearch/05.Models/06.Benchmarking/M.Random_forest/RTS24_mod2_ByStages_nc30/openStarNet_RTS24_mod2_ByStages_nc30.log"
Set parameter Method to value 2
Set parameter MIPFocus to value 1
Set parameter Presolve to value 2
Set parameter RINS to value 100
Set parameter MIPGap to value 0.01
Set parameter Threads to value 36
Set parameter TimeLimit to value 259200
Set parameter IterationLimit to value 760000000
Gurobi Optimizer version 11.0.0 build v11.0.0rc2 (linux64 - "Rocky Linux 8.9 (Green Obsidian)")

CPU model: Intel(R) Xeon(R) Gold 6240 CPU @ 2.60GHz, instruction set [SSE2|AVX|AVX2|AVX512]
Thread count: 36 physical cores, 36 logical processors, using up to 36 threads

Optimize a model with 10653 rows, 7203 columns and 29010 nonzeros
Model fingerprint: 0x30886062
Variable types: 7182 continuous, 21 integer (21 binary)
Coefficient statistics:
  Matrix range     [9e-03, 1e+03]
  Objective range  [1e+00, 1e+00]
  Bounds range     [6e-05, 2e+00]
  RHS range        [6e-05, 2e+00]
Presolve removed 6344 rows and 3633 columns
Presolve time: 0.04s
Presolved: 4309 rows, 3570 columns, 15567 nonzeros
Variable types: 3549 continuous, 21 integer (21 binary)
Found heuristic solution: objective 137.5652533
Root relaxation presolve removed 9 rows and 9 columns
Root relaxation presolved: 4300 rows, 3561 columns, 15549 nonzeros

Root barrier log...

Ordering time: 0.00s

Barrier statistics:
 Dense cols : 21
 AA' NZ     : 2.888e+04
 Factor NZ  : 8.274e+04 (roughly 4 MB of memory)
 Factor Ops : 1.695e+06 (less than 1 second per iteration)
 Threads    : 36

                  Objective                Residual
Iter       Primal          Dual         Primal    Dual     Compl     Time
   0   2.07317710e+06 -4.22053055e+07  1.68e+01 2.68e+02  2.80e+04     0s
   1   6.19153339e+05 -1.93574181e+07  4.94e+00 1.33e-09  7.27e+03     0s
   2   6.83000782e+04 -1.38425647e+07  5.00e-01 8.24e-10  1.83e+03     0s
   3   2.25017937e+04 -1.98426574e+06  9.32e-02 3.55e-10  2.29e+02     0s
   4   1.13505682e+04 -2.92366296e+05  2.71e-03 1.68e-10  3.03e+01     0s
   5   4.46634354e+03 -5.87626262e+04  2.73e-04 3.51e-11  6.28e+00     0s
   6   1.19551253e+03 -1.08012116e+04  2.80e-05 1.17e-11  1.19e+00     0s
   7   5.22403763e+02 -2.35529053e+03  5.85e-06 3.64e-12  2.86e-01     0s
   8   2.78071405e+02 -8.35265514e+02  1.84e-06 1.82e-12  1.11e-01     0s
   9   1.88841327e+02 -3.21623317e+02  9.10e-07 1.82e-12  5.07e-02     0s
  10   1.22848960e+02 -4.07676630e+01  3.30e-07 1.82e-12  1.63e-02     0s
  11   9.04590107e+01  4.01046503e+01  1.29e-07 1.82e-12  5.00e-03     0s
  12   8.12426268e+01  5.54657249e+01  8.13e-08 1.82e-12  2.56e-03     0s
  13   7.46136683e+01  6.15411520e+01  4.43e-08 1.82e-12  1.30e-03     0s
  14   7.16577971e+01  6.34318410e+01  2.73e-08 1.82e-12  8.17e-04     0s
  15   7.07460392e+01  6.53627406e+01  2.23e-08 1.82e-12  5.35e-04     0s
  16   6.86801012e+01  6.57265321e+01  1.01e-08 1.82e-12  2.93e-04     0s
  17   6.79074848e+01  6.64260881e+01  5.44e-09 3.64e-12  1.47e-04     0s
  18   6.74459937e+01  6.66490343e+01  2.54e-09 1.82e-12  7.92e-05     0s
  19   6.71509204e+01  6.69133566e+01  6.95e-10 1.82e-12  2.36e-05     0s
  20   6.70709513e+01  6.69855755e+01  2.65e-10 9.09e-13  8.48e-06     0s
  21   6.70297712e+01  6.70177529e+01  8.08e-11 3.64e-12  1.19e-06     0s
  22   6.70233346e+01  6.70225224e+01  5.45e-11 9.09e-13  8.07e-08     0s
  23   6.70232703e+01  6.70232145e+01  7.09e-10 3.64e-12  5.54e-09     0s
  24   6.70232614e+01  6.70232605e+01  5.02e-11 1.54e-11  9.24e-11     0s
  25   6.70232614e+01  6.70232614e+01  1.05e-10 1.82e-12  1.13e-13     0s

Barrier solved model in 25 iterations and 0.26 seconds (0.15 work units)
Optimal objective 6.70232614e+01


Root relaxation: objective 6.702326e+01, 684 iterations, 0.20 seconds (0.07 work units)

    Nodes    |    Current Node    |     Objective Bounds      |     Work
 Expl Unexpl |  Obj  Depth IntInf | Incumbent    BestBd   Gap | It/Node Time

     0     0   67.02326    0   17  137.56525   67.02326  51.3%     -    0s
     0     0   68.10659    0   15  137.56525   68.10659  50.5%     -    0s
H    0     0                     131.8040934   68.10659  48.3%     -    0s
H    0     0                     124.9673951   68.10659  45.5%     -    0s
     0     0   68.10659    0   15  124.96740   68.10659  45.5%     -    0s
H    0     0                     118.9313573   68.10659  42.7%     -    0s
     0     0   69.14663    0   15  118.93136   69.14663  41.9%     -    0s
     0     0   69.14663    0   15  118.93136   69.14663  41.9%     -    0s
     0     0   69.14663    0   15  118.93136   69.14663  41.9%     -    0s
H    0     0                     109.3508220   69.14663  36.8%     -    0s
     0     0   69.93803    0   14  109.35082   69.93803  36.0%     -    0s
H    0     0                     101.0750402   69.93803  30.8%     -    0s
     0     0   70.17501    0   17  101.07504   70.17501  30.6%     -    0s
     0     0   70.17501    0   16  101.07504   70.17501  30.6%     -    0s
     0     0   70.17501    0   13  101.07504   70.17501  30.6%     -    0s
     0     0   70.39755    0   13  101.07504   70.39755  30.4%     -    0s
     0     0   70.78984    0   13  101.07504   70.78984  30.0%     -    0s
     0     0   71.27960    0   13  101.07504   71.27960  29.5%     -    1s
     0     0   71.27960    0   13  101.07504   71.27960  29.5%     -    1s
     0     0   72.11573    0   13  101.07504   72.11573  28.7%     -    1s
H    0     0                      90.9825940   72.11573  20.7%     -    5s
     0     2   72.11573    0   13   90.98259   72.11573  20.7%     -    5s
H  100   126                      90.0656953   73.10512  18.8%   176    6s
H  129   126                      89.9503932   73.27897  18.5%   173    6s
  2293   460     cutoff   16        89.95039   78.64724  12.6%   100   14s
  2497   472   84.28245   11    9   89.95039   78.64724  12.6%  97.5   18s
H 2593   472                      89.9375182   78.64724  12.6%  96.8   18s

Cutting planes:
  Gomory: 1
  Implied bound: 59
  MIR: 177
  Relax-and-lift: 17

Explored 5242 nodes (410632 simplex iterations) in 19.48 seconds (21.13 work units)
Thread count was 36 (of 36 available processors)

Solution count 10: 89.9375 89.9504 90.0657 ... 137.565

Optimal solution found (tolerance 1.00e-02)
Best objective 8.993751819202e+01, best bound 8.993751819202e+01, gap 0.0000%

Gurobi 11.0.0 (linux64) logging started Mon Jul 22 16:37:18 2024

Set parameter LogFile to value "/lustre1/scratch/348/vsc34888/JointResearch/05.Models/06.Benchmarking/M.Random_forest/RTS24_mod2_ByStages_nc30/openStarNet_RTS24_mod2_ByStages_nc30.log"
Set parameter Method to value 2
Set parameter MIPFocus to value 1
Set parameter Presolve to value 2
Set parameter RINS to value 100
Set parameter MIPGap to value 0.01
Set parameter Threads to value 36
Set parameter TimeLimit to value 259200
Set parameter IterationLimit to value 760000000
Gurobi Optimizer version 11.0.0 build v11.0.0rc2 (linux64 - "Rocky Linux 8.9 (Green Obsidian)")

CPU model: Intel(R) Xeon(R) Gold 6240 CPU @ 2.60GHz, instruction set [SSE2|AVX|AVX2|AVX512]
Thread count: 36 physical cores, 36 logical processors, using up to 36 threads

Optimize a model with 10653 rows, 7182 columns and 26469 nonzeros
Model fingerprint: 0xc0557780
Coefficient statistics:
  Matrix range     [9e-03, 1e+03]
  Objective range  [1e+00, 1e+00]
  Bounds range     [6e-05, 2e+00]
  RHS range        [6e-05, 3e+01]
Presolve removed 8946 rows and 4097 columns
Presolve time: 0.01s
Presolved: 1707 rows, 3115 columns, 7336 nonzeros

Ordering time: 0.00s

Barrier statistics:
 AA' NZ     : 3.927e+03
 Factor NZ  : 1.348e+04 (roughly 2 MB of memory)
 Factor Ops : 1.569e+05 (less than 1 second per iteration)
 Threads    : 1

                  Objective                Residual
Iter       Primal          Dual         Primal    Dual     Compl     Time
   0   2.32624350e+07 -2.82090265e+07  8.81e+01 2.16e+03  4.07e+05     0s
   1   1.41768861e+06 -2.70809692e+07  5.21e+00 1.35e+03  2.85e+04     0s
   2   1.45443340e+05 -1.30579305e+07  5.17e-01 1.21e-09  4.19e+03     0s
   3   5.62319016e+04 -5.45639691e+06  1.73e-01 4.71e-10  1.37e+03     0s
   4   2.91729062e+04 -1.50901402e+06  3.91e-02 7.63e-11  3.22e+02     0s
   5   1.74558996e+04 -5.10313854e+05  1.30e-03 2.31e-11  9.95e+01     0s
   6   8.65740050e+03 -1.39493756e+05  6.89e-06 2.18e-11  2.78e+01     0s
   7   2.37704188e+03 -1.34909163e+04  2.52e-09 1.46e-11  2.98e+00     0s
   8   7.97541693e+02 -4.04317339e+03  3.33e-10 7.28e-12  9.08e-01     0s
   9   4.10376882e+02 -1.66068994e+03  9.65e-11 1.46e-11  3.89e-01     0s
  10   2.67243696e+02 -5.74243546e+02  1.08e-10 7.28e-12  1.58e-01     0s
  11   1.76747450e+02 -1.48573215e+02  7.41e-11 7.28e-12  6.10e-02     0s
  12   1.29850134e+02 -1.24566684e+01  1.04e-10 7.28e-12  2.67e-02     0s
  13   1.06083008e+02  4.10427992e+01  1.87e-10 7.28e-12  1.22e-02     0s
  14   9.71024067e+01  7.03930286e+01  9.55e-11 7.28e-12  5.01e-03     0s
  15   9.25168519e+01  8.38827794e+01  3.86e-10 7.28e-12  1.62e-03     0s
  16   9.01784898e+01  8.90453231e+01  1.87e-09 7.28e-12  2.13e-04     0s
  17   8.99673332e+01  8.98890443e+01  4.78e-10 1.09e-11  1.47e-05     0s
  18   8.99404284e+01  8.99318265e+01  2.31e-09 1.46e-11  1.61e-06     0s
  19   8.99375683e+01  8.99374069e+01  5.72e-10 7.28e-12  3.03e-08     0s
  20   8.99375184e+01  8.99375182e+01  1.58e-09 1.46e-11  4.04e-14     0s

Barrier solved model in 20 iterations and 0.04 seconds (0.03 work units)
Optimal objective 8.99375184e+01

Crossover log...

     386 DPushes remaining with DInf 0.0000000e+00                 0s
       0 DPushes remaining with DInf 0.0000000e+00                 0s

     109 PPushes remaining with PInf 0.0000000e+00                 0s
       0 PPushes remaining with PInf 0.0000000e+00                 0s

  Push phase complete: Pinf 0.0000000e+00, Dinf 1.9573053e-12      0s

Iteration    Objective       Primal Inf.    Dual Inf.      Time
     120    8.9937518e+01   0.000000e+00   0.000000e+00      0s

Use crossover to convert LP symmetric solution to basic solution...
Crossover log...

       0 DPushes remaining with DInf 0.0000000e+00                 0s

      85 PPushes remaining with PInf 0.0000000e+00                 0s
       0 PPushes remaining with PInf 0.0000000e+00                 0s

  Push phase complete: Pinf 0.0000000e+00, Dinf 9.2935915e-13      0s

Iteration    Objective       Primal Inf.    Dual Inf.      Time
     213    8.9937518e+01   0.000000e+00   0.000000e+00      0s

Solved in 213 iterations and 0.06 seconds (0.04 work units)
Optimal objective  8.993751819e+01
